89 6
2 28
93 71
93 89
29 94
41 49
6 8
53 8
65 83
2 12
9 64
48 27
87 63
75 60
61 88
99 55
55 51
96 90
100 35
26 80
65 87
43 14
23 43
82 96
21 86
4 3
82 7
91 96
94 69
71 36
